NAME: geneh12.tsp
TYPE: TSP
COMMENT: User-generated TSP file
DIMENSION: 12
EDGE_WEIGHT_TYPE: EUC_2D
NODE_COORD_SECTION
1 61.0 28.0
2 102.0 89.0
3 94.0 26.0
4 101.0 28.0
5 8.0 117.0
6 65.0 97.0
7 35.0 118.0
8 74.0 49.0
9 53.0 52.0
10 101.0 105.0
11 90.0 2.0
12 42.0 106.0
EOF

